<?xml version="1.0" encoding="UTF-8"?><osil xmlns="os.optimizationservices.org"   xmlns:xsi="http://www.w3.org/2001/XMLSchema-instance" xsi:schemaLocation="os.optimizationservices.org http://www.optimizationservices.org/schemas/2.0/OSiL.xsd" ><instanceHeader><name>q_30_0_25_4</name></instanceHeader><instanceData><variables numberOfVariables="30"><var name="x1" ub="1"/><var name="x2" ub="1"/><var name="x3" ub="1"/><var name="x4" ub="1"/><var name="x5" ub="1"/><var name="x6" ub="1"/><var name="x7" ub="1"/><var name="x8" ub="1"/><var name="x9" ub="1"/><var name="x10" ub="1"/><var name="x11" ub="1"/><var name="x12" ub="1"/><var name="x13" ub="1"/><var name="x14" ub="1"/><var name="x15" ub="1"/><var name="x16" ub="1"/><var name="x17" ub="1"/><var name="x18" ub="1"/><var name="x19" ub="1"/><var name="x20" ub="1"/><var name="x21" ub="1"/><var name="x22" ub="1"/><var name="x23" ub="1"/><var name="x24" ub="1"/><var name="x25" ub="1"/><var name="x26" ub="1"/><var name="x27" ub="1"/><var name="x28" ub="1"/><var name="x29" ub="1"/><var name="x30" ub="1"/></variables><objectives numberOfObjectives="1"><obj maxOrMin="min" name="defObj_x31" numberOfObjCoef="30"><coef idx="0">-.3651</coef><coef idx="1">-.2567</coef><coef idx="2">.1421</coef><coef idx="3">-.8825</coef><coef idx="4">-.6058</coef><coef idx="5">.503</coef><coef idx="6">-4.62e-2</coef><coef idx="7">-.717</coef><coef idx="8">2.53e-2</coef><coef idx="9">-.9476</coef><coef idx="10">-.3171</coef><coef idx="11">.5691</coef><coef idx="12">-.3612</coef><coef idx="13">4.88e-2</coef><coef idx="14">.423</coef><coef idx="15">.2762</coef><coef idx="16">2.21e-2</coef><coef idx="17">.3975</coef><coef idx="18">-.5281</coef><coef idx="19">-.722</coef><coef idx="20">-.1433</coef><coef idx="21">.1957</coef><coef idx="22">.7882</coef><coef idx="23">.9988</coef><coef idx="24">.8552</coef><coef idx="25">.3681</coef><coef idx="26">-.6187</coef><coef idx="27">-.2208</coef><coef idx="28">-.8222</coef><coef idx="29">.3944</coef></obj></objectives><quadraticCoefficients  numberOfQuadraticTerms="116" ><qTerm  idx="-1"  idxOne="0"  idxTwo="8"  coef=".3895"/><qTerm  idx="-1"  idxOne="0"  idxTwo="9"  coef="1.6355"/><qTerm  idx="-1"  idxOne="0"  idxTwo="11"  coef="1.3732"/><qTerm  idx="-1"  idxOne="0"  idxTwo="20"  coef=".3927"/><qTerm  idx="-1"  idxOne="0"  idxTwo="21"  coef="-1.1231"/><qTerm  idx="-1"  idxOne="0"  idxTwo="26"  coef="1.328"/><qTerm  idx="-1"  idxOne="1"  idxTwo="3"  coef="-1.0082"/><qTerm  idx="-1"  idxOne="1"  idxTwo="4"  coef="1.4969"/><qTerm  idx="-1"  idxOne="1"  idxTwo="7"  coef="-1.5304"/><qTerm  idx="-1"  idxOne="1"  idxTwo="14"  coef="-.9034"/><qTerm  idx="-1"  idxOne="1"  idxTwo="17"  coef="-.2704"/><qTerm  idx="-1"  idxOne="1"  idxTwo="25"  coef="-1.2149"/><qTerm  idx="-1"  idxOne="1"  idxTwo="26"  coef="-5.95e-2"/><qTerm  idx="-1"  idxOne="1"  idxTwo="28"  coef=".8588"/><qTerm  idx="-1"  idxOne="2"  idxTwo="2"  coef="1.4359"/><qTerm  idx="-1"  idxOne="2"  idxTwo="6"  coef="-.9721"/><qTerm  idx="-1"  idxOne="2"  idxTwo="8"  coef="-1.4342"/><qTerm  idx="-1"  idxOne="2"  idxTwo="9"  coef="1.825"/><qTerm  idx="-1"  idxOne="2"  idxTwo="14"  coef="1.9711"/><qTerm  idx="-1"  idxOne="2"  idxTwo="17"  coef=".2753"/><qTerm  idx="-1"  idxOne="2"  idxTwo="20"  coef="6.e-4"/><qTerm  idx="-1"  idxOne="2"  idxTwo="25"  coef="1.884"/><qTerm  idx="-1"  idxOne="2"  idxTwo="26"  coef=".8925"/><qTerm  idx="-1"  idxOne="2"  idxTwo="29"  coef="1.8439"/><qTerm  idx="-1"  idxOne="3"  idxTwo="3"  coef=".292"/><qTerm  idx="-1"  idxOne="3"  idxTwo="5"  coef="-1.1801"/><qTerm  idx="-1"  idxOne="3"  idxTwo="6"  coef="-1.9703"/><qTerm  idx="-1"  idxOne="3"  idxTwo="7"  coef="1.3342"/><qTerm  idx="-1"  idxOne="3"  idxTwo="10"  coef="1.604"/><qTerm  idx="-1"  idxOne="3"  idxTwo="18"  coef="-1.6445"/><qTerm  idx="-1"  idxOne="3"  idxTwo="24"  coef="-.2569"/><qTerm  idx="-1"  idxOne="3"  idxTwo="28"  coef="1.0884"/><qTerm  idx="-1"  idxOne="4"  idxTwo="5"  coef=".4144"/><qTerm  idx="-1"  idxOne="4"  idxTwo="13"  coef="1.5751"/><qTerm  idx="-1"  idxOne="4"  idxTwo="15"  coef="-.1026"/><qTerm  idx="-1"  idxOne="4"  idxTwo="17"  coef="-.4506"/><qTerm  idx="-1"  idxOne="4"  idxTwo="21"  coef="1.9858"/><qTerm  idx="-1"  idxOne="4"  idxTwo="22"  coef="1.0417"/><qTerm  idx="-1"  idxOne="5"  idxTwo="7"  coef="-1.6421"/><qTerm  idx="-1"  idxOne="5"  idxTwo="9"  coef="-1.9329"/><qTerm  idx="-1"  idxOne="5"  idxTwo="13"  coef="1.8695"/><qTerm  idx="-1"  idxOne="5"  idxTwo="14"  coef="1.2276"/><qTerm  idx="-1"  idxOne="5"  idxTwo="17"  coef=".1146"/><qTerm  idx="-1"  idxOne="5"  idxTwo="18"  coef="-.3727"/><qTerm  idx="-1"  idxOne="5"  idxTwo="19"  coef=".1511"/><qTerm  idx="-1"  idxOne="5"  idxTwo="21"  coef="1.0736"/><qTerm  idx="-1"  idxOne="5"  idxTwo="24"  coef="1.6824"/><qTerm  idx="-1"  idxOne="5"  idxTwo="25"  coef=".994"/><qTerm  idx="-1"  idxOne="6"  idxTwo="12"  coef=".7069"/><qTerm  idx="-1"  idxOne="6"  idxTwo="13"  coef=".6107"/><qTerm  idx="-1"  idxOne="6"  idxTwo="15"  coef="-1.0116"/><qTerm  idx="-1"  idxOne="6"  idxTwo="16"  coef="-1.6995"/><qTerm  idx="-1"  idxOne="6"  idxTwo="18"  coef="1.6647"/><qTerm  idx="-1"  idxOne="6"  idxTwo="23"  coef="1.9358"/><qTerm  idx="-1"  idxOne="7"  idxTwo="14"  coef="-.2736"/><qTerm  idx="-1"  idxOne="7"  idxTwo="18"  coef="-1.4761"/><qTerm  idx="-1"  idxOne="7"  idxTwo="19"  coef="1.6077"/><qTerm  idx="-1"  idxOne="7"  idxTwo="23"  coef="-5.7e-2"/><qTerm  idx="-1"  idxOne="8"  idxTwo="24"  coef="-1.8846"/><qTerm  idx="-1"  idxOne="8"  idxTwo="27"  coef="-1.1278"/><qTerm  idx="-1"  idxOne="9"  idxTwo="9"  coef="-1.7041"/><qTerm  idx="-1"  idxOne="9"  idxTwo="17"  coef="-.1221"/><qTerm  idx="-1"  idxOne="9"  idxTwo="18"  coef=".7072"/><qTerm  idx="-1"  idxOne="9"  idxTwo="23"  coef=".8778"/><qTerm  idx="-1"  idxOne="9"  idxTwo="26"  coef=".8893"/><qTerm  idx="-1"  idxOne="10"  idxTwo="11"  coef="-6.65e-2"/><qTerm  idx="-1"  idxOne="10"  idxTwo="12"  coef=".1422"/><qTerm  idx="-1"  idxOne="10"  idxTwo="17"  coef="-1.7542"/><qTerm  idx="-1"  idxOne="10"  idxTwo="22"  coef="-.8122"/><qTerm  idx="-1"  idxOne="10"  idxTwo="27"  coef="-1.3906"/><qTerm  idx="-1"  idxOne="11"  idxTwo="14"  coef="-1.5176"/><qTerm  idx="-1"  idxOne="11"  idxTwo="15"  coef="1.5264"/><qTerm  idx="-1"  idxOne="11"  idxTwo="16"  coef="-1.6463"/><qTerm  idx="-1"  idxOne="11"  idxTwo="18"  coef=".9133"/><qTerm  idx="-1"  idxOne="11"  idxTwo="20"  coef="-2.49e-2"/><qTerm  idx="-1"  idxOne="11"  idxTwo="24"  coef=".5476"/><qTerm  idx="-1"  idxOne="11"  idxTwo="29"  coef="-1.224"/><qTerm  idx="-1"  idxOne="12"  idxTwo="17"  coef="3.69e-2"/><qTerm  idx="-1"  idxOne="12"  idxTwo="18"  coef=".4349"/><qTerm  idx="-1"  idxOne="12"  idxTwo="19"  coef="-1.7392"/><qTerm  idx="-1"  idxOne="12"  idxTwo="24"  coef="-1.9038"/><qTerm  idx="-1"  idxOne="12"  idxTwo="28"  coef=".9673"/><qTerm  idx="-1"  idxOne="12"  idxTwo="29"  coef="-1.3287"/><qTerm  idx="-1"  idxOne="13"  idxTwo="17"  coef=".7398"/><qTerm  idx="-1"  idxOne="13"  idxTwo="20"  coef="-.3556"/><qTerm  idx="-1"  idxOne="13"  idxTwo="26"  coef="-1.3761"/><qTerm  idx="-1"  idxOne="13"  idxTwo="29"  coef="1.9715"/><qTerm  idx="-1"  idxOne="14"  idxTwo="14"  coef="-1.6941"/><qTerm  idx="-1"  idxOne="14"  idxTwo="17"  coef="1.0356"/><qTerm  idx="-1"  idxOne="14"  idxTwo="19"  coef="-.868"/><qTerm  idx="-1"  idxOne="14"  idxTwo="20"  coef="-.2313"/><qTerm  idx="-1"  idxOne="15"  idxTwo="20"  coef="1.8588"/><qTerm  idx="-1"  idxOne="15"  idxTwo="21"  coef="-.7417"/><qTerm  idx="-1"  idxOne="15"  idxTwo="27"  coef="-1.6651"/><qTerm  idx="-1"  idxOne="16"  idxTwo="17"  coef=".3402"/><qTerm  idx="-1"  idxOne="16"  idxTwo="23"  coef="-1.95e-2"/><qTerm  idx="-1"  idxOne="17"  idxTwo="18"  coef="-1.2776"/><qTerm  idx="-1"  idxOne="17"  idxTwo="19"  coef="1.0237"/><qTerm  idx="-1"  idxOne="17"  idxTwo="25"  coef="-1.1114"/><qTerm  idx="-1"  idxOne="17"  idxTwo="26"  coef="-.3673"/><qTerm  idx="-1"  idxOne="17"  idxTwo="28"  coef="-1.4449"/><qTerm  idx="-1"  idxOne="18"  idxTwo="19"  coef="1.6607"/><qTerm  idx="-1"  idxOne="18"  idxTwo="20"  coef="1.8857"/><qTerm  idx="-1"  idxOne="18"  idxTwo="21"  coef="1.9561"/><qTerm  idx="-1"  idxOne="19"  idxTwo="27"  coef=".4975"/><qTerm  idx="-1"  idxOne="20"  idxTwo="21"  coef=".1172"/><qTerm  idx="-1"  idxOne="20"  idxTwo="24"  coef=".6955"/><qTerm  idx="-1"  idxOne="20"  idxTwo="26"  coef="1.2199"/><qTerm  idx="-1"  idxOne="21"  idxTwo="24"  coef="-1.3037"/><qTerm  idx="-1"  idxOne="21"  idxTwo="28"  coef="1.7047"/><qTerm  idx="-1"  idxOne="22"  idxTwo="27"  coef="-.8207"/><qTerm  idx="-1"  idxOne="23"  idxTwo="26"  coef="-7.64e-2"/><qTerm  idx="-1"  idxOne="24"  idxTwo="27"  coef=".128"/><qTerm  idx="-1"  idxOne="26"  idxTwo="26"  coef="1.6806"/><qTerm  idx="-1"  idxOne="26"  idxTwo="27"  coef=".8768"/><qTerm  idx="-1"  idxOne="27"  idxTwo="28"  coef="-1.5161"/></quadraticCoefficients></instanceData></osil>
